50, 11167
640, 739
26, 125
276, 375
224, 326
737, 838
677, 778
893, 991
87, 188
422, 520
30, 129
219, 321
506, 607
27, 127
199, 300
650, 752
545, 646
221, 320
590, 688
810, 909
7, 106
806, 905
699, 801
341, 443
156, 255
958, 1059
337, 436
93, 195
97, 197
848, 947
604, 703
808, 908
730, 829
537, 637
974, 1076
379, 478
553, 652
830, 932
619, 719
862, 960
578, 676
705, 803
46, 147
228, 329
290, 390
80, 178
233, 332
102, 204
278, 378
636, 738
365, 467
